80 3160
1 2 176
1 3 224
1 4 139
1 5 109
1 6 33
1 7 222
1 8 132
1 9 70
1 10 229
1 11 70
1 12 22
1 13 237
1 14 133
1 15 2
1 16 95
1 17 71
1 18 111
1 19 196
1 20 206
1 21 163
1 22 92
1 23 91
1 24 154
1 25 218
1 26 134
1 27 148
1 28 43
1 29 31
1 30 49
1 31 85
1 32 106
1 33 169
1 34 64
1 35 6
1 36 147
1 37 130
1 38 79
1 39 158
1 40 105
1 41 163
1 42 26
1 43 60
1 44 115
1 45 66
1 46 204
1 47 224
1 48 67
1 49 130
1 50 10
1 51 110
1 52 179
1 53 0
1 54 93
1 55 221
1 56 94
1 57 0
1 58 139
1 59 158
1 60 154
1 61 71
1 62 51
1 63 156
1 64 152
1 65 91
1 66 174
1 67 62
1 68 141
1 69 199
1 70 36
1 71 228
1 72 128
1 73 186
1 74 43
1 75 192
1 76 237
1 77 147
1 78 58
1 79 45
1 80 211
2 3 129
2 4 189
2 5 9
2 6 29
2 7 52
2 8 171
2 9 101
2 10 87
2 11 32
2 12 19
2 13 47
2 14 197
2 15 92
2 16 6
2 17 65
2 18 164
2 19 84
2 20 36
2 21 44
2 22 53
2 23 78
2 24 4
2 25 86
2 26 43
2 27 19
2 28 224
2 29 165
2 30 104
2 31 30
2 32 190
2 33 44
2 34 171
2 35 35
2 36 230
2 37 27
2 38 50
2 39 58
2 40 156
2 41 159
2 42 232
2 43 143
2 44 5
2 45 180
2 46 183
2 47 125
2 48 56
2 49 47
2 50 68
2 51 132
2 52 146
2 53 111
2 54 42
2 55 17
2 56 218
2 57 200
2 58 174
2 59 11
2 60 155
2 61 155
2 62 59
2 63 7
2 64 169
2 65 193
2 66 53
2 67 200
2 68 163
2 69 131
2 70 21
2 71 170
2 72 195
2 73 70
2 74 56
2 75 79
2 76 95
2 77 22
2 78 0
2 79 56
2 80 75
3 4 158
3 5 161
3 6 113
3 7 125
3 8 14
3 9 90
3 10 150
3 11 174
3 12 101
3 13 117
3 14 6
3 15 116
3 16 62
3 17 30
3 18 233
3 19 36
3 20 57
3 21 223
3 22 137
3 23 187
3 24 64
3 25 58
3 26 111
3 27 80
3 28 55
3 29 154
3 30 132
3 31 171
3 32 193
3 33 165
3 34 13
3 35 118
3 36 163
3 37 142
3 38 184
3 39 2
3 40 104
3 41 150
3 42 230
3 43 192
3 44 78
3 45 52
3 46 94
3 47 26
3 48 173
3 49 68
3 50 189
3 51 55
3 52 80
3 53 221
3 54 78
3 55 22
3 56 68
3 57 75
3 58 147
3 59 176
3 60 206
3 61 239
3 62 131
3 63 28
3 64 187
3 65 132
3 66 169
3 67 27
3 68 120
3 69 228
3 70 54
3 71 199
3 72 113
3 73 205
3 74 21
3 75 92
3 76 179
3 77 149
3 78 169
3 79 78
3 80 205
4 5 239
4 6 35
4 7 6
4 8 59
4 9 190
4 10 140
4 11 170
4 12 122
4 13 110
4 14 128
4 15 237
4 16 173
4 17 192
4 18 200
4 19 239
4 20 109
4 21 224
4 22 42
4 23 78
4 24 172
4 25 4
4 26 40
4 27 106
4 28 170
4 29 96
4 30 71
4 31 60
4 32 117
4 33 164
4 34 180
4 35 217
4 36 75
4 37 125
4 38 183
4 39 154
4 40 183
4 41 173
4 42 224
4 43 40
4 44 187
4 45 23
4 46 175
4 47 38
4 48 183
4 49 195
4 50 57
4 51 220
4 52 123
4 53 62
4 54 69
4 55 235
4 56 220
4 57 178
4 58 129
4 59 47
4 60 163
4 61 119
4 62 131
4 63 64
4 64 174
4 65 106
4 66 12
4 67 101
4 68 76
4 69 96
4 70 119
4 71 53
4 72 21
4 73 235
4 74 78
4 75 147
4 76 45
4 77 80
4 78 33
4 79 83
4 80 54
5 6 239
5 7 178
5 8 171
5 9 32
5 10 196
5 11 178
5 12 59
5 13 109
5 14 169
5 15 122
5 16 191
5 17 207
5 18 210
5 19 159
5 20 113
5 21 22
5 22 194
5 23 5
5 24 193
5 25 161
5 26 217
5 27 10
5 28 82
5 29 182
5 30 72
5 31 142
5 32 209
5 33 185
5 34 207
5 35 220
5 36 33
5 37 215
5 38 41
5 39 231
5 40 214
5 41 122
5 42 105
5 43 184
5 44 84
5 45 92
5 46 19
5 47 211
5 48 238
5 49 164
5 50 5
5 51 128
5 52 167
5 53 39
5 54 184
5 55 119
5 56 155
5 57 49
5 58 152
5 59 66
5 60 10
5 61 137
5 62 134
5 63 105
5 64 101
5 65 58
5 66 109
5 67 180
5 68 146
5 69 108
5 70 179
5 71 165
5 72 138
5 73 165
5 74 15
5 75 13
5 76 85
5 77 135
5 78 230
5 79 64
5 80 171
6 7 48
6 8 231
6 9 10
6 10 78
6 11 184
6 12 199
6 13 51
6 14 123
6 15 90
6 16 227
6 17 153
6 18 74
6 19 54
6 20 173
6 21 143
6 22 128
6 23 221
6 24 123
6 25 173
6 26 128
6 27 57
6 28 106
6 29 211
6 30 32
6 31 164
6 32 93
6 33 33
6 34 132
6 35 154
6 36 142
6 37 132
6 38 41
6 39 181
6 40 141
6 41 122
6 42 152
6 43 50
6 44 238
6 45 178
6 46 239
6 47 226
6 48 155
6 49 237
6 50 113
6 51 103
6 52 122
6 53 69
6 54 117
6 55 59
6 56 73
6 57 84
6 58 199
6 59 61
6 60 136
6 61 209
6 62 79
6 63 43
6 64 4
6 65 44
6 66 50
6 67 82
6 68 202
6 69 69
6 70 224
6 71 215
6 72 89
6 73 181
6 74 109
6 75 217
6 76 211
6 77 144
6 78 193
6 79 55
6 80 104
7 8 35
7 9 51
7 10 3
7 11 10
7 12 32
7 13 18
7 14 9
7 15 239
7 16 119
7 17 74
7 18 41
7 19 198
7 20 174
7 21 53
7 22 149
7 23 21
7 24 193
7 25 156
7 26 6
7 27 55
7 28 175
7 29 59
7 30 158
7 31 63
7 32 186
7 33 153
7 34 92
7 35 128
7 36 217
7 37 27
7 38 224
7 39 163
7 40 33
7 41 155
7 42 47
7 43 171
7 44 2
7 45 35
7 46 215
7 47 69
7 48 200
7 49 228
7 50 185
7 51 194
7 52 129
7 53 135
7 54 164
7 55 163
7 56 31
7 57 56
7 58 209
7 59 54
7 60 165
7 61 99
7 62 20
7 63 43
7 64 201
7 65 234
7 66 222
7 67 209
7 68 124
7 69 13
7 70 204
7 71 181
7 72 99
7 73 209
7 74 179
7 75 63
7 76 128
7 77 185
7 78 75
7 79 57
7 80 140
8 9 156
8 10 181
8 11 190
8 12 64
8 13 70
8 14 236
8 15 92
8 16 87
8 17 193
8 18 190
8 19 100
8 20 76
8 21 20
8 22 122
8 23 160
8 24 36
8 25 91
8 26 231
8 27 173
8 28 120
8 29 131
8 30 45
8 31 119
8 32 25
8 33 180
8 34 79
8 35 177
8 36 94
8 37 132
8 38 221
8 39 189
8 40 209
8 41 75
8 42 166
8 43 190
8 44 35
8 45 95
8 46 29
8 47 56
8 48 99
8 49 105
8 50 122
8 51 78
8 52 121
8 53 13
8 54 219
8 55 72
8 56 167
8 57 95
8 58 187
8 59 46
8 60 49
8 61 50
8 62 200
8 63 140
8 64 121
8 65 16
8 66 107
8 67 150
8 68 190
8 69 95
8 70 24
8 71 3
8 72 227
8 73 79
8 74 147
8 75 205
8 76 219
8 77 0
8 78 80
8 79 134
8 80 198
9 10 131
9 11 6
9 12 126
9 13 139
9 14 51
9 15 88
9 16 101
9 17 1
9 18 88
9 19 198
9 20 225
9 21 103
9 22 196
9 23 34
9 24 15
9 25 174
9 26 64
9 27 192
9 28 44
9 29 238
9 30 136
9 31 224
9 32 166
9 33 205
9 34 176
9 35 156
9 36 50
9 37 48
9 38 182
9 39 138
9 40 236
9 41 207
9 42 161
9 43 187
9 44 70
9 45 230
9 46 185
9 47 233
9 48 141
9 49 57
9 50 146
9 51 236
9 52 12
9 53 133
9 54 93
9 55 179
9 56 221
9 57 69
9 58 33
9 59 76
9 60 116
9 61 66
9 62 237
9 63 102
9 64 176
9 65 170
9 66 42
9 67 102
9 68 164
9 69 85
9 70 56
9 71 193
9 72 106
9 73 128
9 74 78
9 75 19
9 76 223
9 77 121
9 78 220
9 79 188
9 80 66
10 11 131
10 12 235
10 13 174
10 14 238
10 15 129
10 16 208
10 17 154
10 18 33
10 19 51
10 20 25
10 21 231
10 22 83
10 23 67
10 24 158
10 25 120
10 26 123
10 27 97
10 28 135
10 29 46
10 30 47
10 31 115
10 32 150
10 33 73
10 34 218
10 35 215
10 36 141
10 37 133
10 38 163
10 39 219
10 40 106
10 41 105
10 42 133
10 43 70
10 44 148
10 45 84
10 46 137
10 47 89
10 48 181
10 49 182
10 50 204
10 51 14
10 52 172
10 53 39
10 54 43
10 55 198
10 56 96
10 57 148
10 58 168
10 59 1
10 60 183
10 61 144
10 62 214
10 63 150
10 64 134
10 65 94
10 66 26
10 67 212
10 68 65
10 69 113
10 70 149
10 71 28
10 72 228
10 73 73
10 74 103
10 75 186
10 76 176
10 77 41
10 78 211
10 79 169
10 80 224
11 12 148
11 13 216
11 14 145
11 15 68
11 16 205
11 17 38
11 18 80
11 19 63
11 20 24
11 21 224
11 22 61
11 23 5
11 24 163
11 25 220
11 26 134
11 27 175
11 28 121
11 29 98
11 30 152
11 31 95
11 32 189
11 33 151
11 34 143
11 35 17
11 36 123
11 37 132
11 38 79
11 39 159
11 40 179
11 41 166
11 42 137
11 43 200
11 44 105
11 45 161
11 46 139
11 47 40
11 48 182
11 49 13
11 50 12
11 51 81
11 52 212
11 53 124
11 54 54
11 55 174
11 56 204
11 57 52
11 58 26
11 59 153
11 60 67
11 61 106
11 62 151
11 63 169
11 64 85
11 65 31
11 66 195
11 67 168
11 68 201
11 69 169
11 70 227
11 71 69
11 72 195
11 73 42
11 74 212
11 75 97
11 76 39
11 77 100
11 78 183
11 79 225
11 80 81
12 13 39
12 14 172
12 15 168
12 16 173
12 17 238
12 18 19
12 19 25
12 20 13
12 21 147
12 22 87
12 23 120
12 24 174
12 25 34
12 26 157
12 27 107
12 28 91
12 29 39
12 30 63
12 31 74
12 32 194
12 33 114
12 34 61
12 35 131
12 36 229
12 37 85
12 38 178
12 39 6
12 40 23
12 41 3
12 42 95
12 43 76
12 44 36
12 45 106
12 46 58
12 47 145
12 48 221
12 49 104
12 50 222
12 51 193
12 52 94
12 53 226
12 54 120
12 55 110
12 56 172
12 57 168
12 58 67
12 59 85
12 60 85
12 61 87
12 62 21
12 63 102
12 64 108
12 65 143
12 66 165
12 67 201
12 68 145
12 69 64
12 70 61
12 71 3
12 72 20
12 73 180
12 74 216
12 75 171
12 76 216
12 77 155
12 78 110
12 79 200
12 80 185
13 14 216
13 15 198
13 16 233
13 17 39
13 18 112
13 19 31
13 20 111
13 21 135
13 22 101
13 23 91
13 24 164
13 25 134
13 26 152
13 27 165
13 28 8
13 29 44
13 30 145
13 31 171
13 32 74
13 33 157
13 34 56
13 35 35
13 36 109
13 37 96
13 38 133
13 39 61
13 40 64
13 41 1
13 42 165
13 43 110
13 44 207
13 45 213
13 46 126
13 47 111
13 48 167
13 49 159
13 50 52
13 51 114
13 52 42
13 53 115
13 54 147
13 55 211
13 56 231
13 57 99
13 58 206
13 59 3
13 60 109
13 61 216
13 62 212
13 63 59
13 64 160
13 65 97
13 66 139
13 67 14
13 68 228
13 69 151
13 70 217
13 71 58
13 72 169
13 73 167
13 74 44
13 75 180
13 76 129
13 77 74
13 78 15
13 79 69
13 80 101
14 15 15
14 16 164
14 17 18
14 18 162
14 19 119
14 20 209
14 21 211
14 22 11
14 23 77
14 24 122
14 25 27
14 26 159
14 27 87
14 28 2
14 29 0
14 30 39
14 31 37
14 32 161
14 33 81
14 34 203
14 35 54
14 36 236
14 37 65
14 38 211
14 39 191
14 40 226
14 41 1
14 42 166
14 43 85
14 44 39
14 45 39
14 46 169
14 47 35
14 48 159
14 49 41
14 50 191
14 51 8
14 52 149
14 53 39
14 54 42
14 55 26
14 56 26
14 57 62
14 58 192
14 59 236
14 60 231
14 61 188
14 62 116
14 63 179
14 64 82
14 65 36
14 66 58
14 67 184
14 68 25
14 69 216
14 70 225
14 71 220
14 72 238
14 73 141
14 74 220
14 75 210
14 76 56
14 77 57
14 78 57
14 79 14
14 80 107
15 16 80
15 17 207
15 18 187
15 19 124
15 20 154
15 21 36
15 22 9
15 23 185
15 24 18
15 25 57
15 26 196
15 27 192
15 28 69
15 29 47
15 30 133
15 31 167
15 32 43
15 33 151
15 34 67
15 35 193
15 36 135
15 37 3
15 38 182
15 39 110
15 40 213
15 41 126
15 42 171
15 43 23
15 44 103
15 45 239
15 46 115
15 47 146
15 48 133
15 49 97
15 50 231
15 51 233
15 52 15
15 53 71
15 54 110
15 55 43
15 56 216
15 57 158
15 58 199
15 59 214
15 60 75
15 61 208
15 62 162
15 63 216
15 64 158
15 65 170
15 66 112
15 67 159
15 68 78
15 69 27
15 70 157
15 71 172
15 72 38
15 73 70
15 74 37
15 75 26
15 76 24
15 77 43
15 78 17
15 79 53
15 80 175
16 17 160
16 18 23
16 19 212
16 20 191
16 21 204
16 22 196
16 23 62
16 24 179
16 25 177
16 26 89
16 27 81
16 28 205
16 29 129
16 30 200
16 31 89
16 32 131
16 33 34
16 34 46
16 35 15
16 36 77
16 37 188
16 38 211
16 39 161
16 40 111
16 41 42
16 42 99
16 43 216
16 44 42
16 45 114
16 46 197
16 47 212
16 48 187
16 49 75
16 50 105
16 51 67
16 52 118
16 53 21
16 54 175
16 55 199
16 56 173
16 57 83
16 58 94
16 59 74
16 60 86
16 61 188
16 62 194
16 63 177
16 64 37
16 65 68
16 66 192
16 67 106
16 68 146
16 69 98
16 70 64
16 71 61
16 72 144
16 73 78
16 74 8
16 75 203
16 76 101
16 77 76
16 78 212
16 79 110
16 80 139
17 18 160
17 19 239
17 20 59
17 21 207
17 22 41
17 23 105
17 24 122
17 25 186
17 26 66
17 27 32
17 28 62
17 29 150
17 30 221
17 31 219
17 32 210
17 33 57
17 34 170
17 35 189
17 36 198
17 37 72
17 38 8
17 39 215
17 40 116
17 41 235
17 42 159
17 43 67
17 44 18
17 45 50
17 46 193
17 47 100
17 48 27
17 49 5
17 50 190
17 51 214
17 52 202
17 53 82
17 54 16
17 55 96
17 56 112
17 57 145
17 58 166
17 59 76
17 60 21
17 61 63
17 62 219
17 63 176
17 64 219
17 65 188
17 66 92
17 67 237
17 68 146
17 69 143
17 70 118
17 71 149
17 72 237
17 73 204
17 74 46
17 75 92
17 76 117
17 77 194
17 78 52
17 79 61
17 80 214
18 19 138
18 20 176
18 21 152
18 22 50
18 23 227
18 24 78
18 25 153
18 26 43
18 27 125
18 28 187
18 29 122
18 30 95
18 31 175
18 32 24
18 33 2
18 34 67
18 35 27
18 36 193
18 37 149
18 38 46
18 39 162
18 40 51
18 41 106
18 42 57
18 43 233
18 44 34
18 45 0
18 46 152
18 47 64
18 48 133
18 49 86
18 50 94
18 51 159
18 52 20
18 53 206
18 54 183
18 55 174
18 56 184
18 57 20
18 58 152
18 59 125
18 60 204
18 61 74
18 62 219
18 63 78
18 64 217
18 65 16
18 66 7
18 67 82
18 68 203
18 69 180
18 70 168
18 71 157
18 72 222
18 73 83
18 74 183
18 75 64
18 76 37
18 77 97
18 78 29
18 79 112
18 80 186
19 20 196
19 21 168
19 22 174
19 23 33
19 24 154
19 25 137
19 26 33
19 27 69
19 28 42
19 29 83
19 30 187
19 31 28
19 32 111
19 33 67
19 34 162
19 35 43
19 36 151
19 37 108
19 38 44
19 39 147
19 40 178
19 41 44
19 42 143
19 43 218
19 44 193
19 45 101
19 46 50
19 47 233
19 48 128
19 49 97
19 50 129
19 51 126
19 52 107
19 53 46
19 54 176
19 55 197
19 56 61
19 57 69
19 58 99
19 59 72
19 60 94
19 61 229
19 62 7
19 63 238
19 64 33
19 65 198
19 66 125
19 67 172
19 68 63
19 69 2
19 70 222
19 71 17
19 72 36
19 73 134
19 74 30
19 75 62
19 76 119
19 77 219
19 78 190
19 79 69
19 80 230
20 21 85
20 22 173
20 23 66
20 24 19
20 25 178
20 26 36
20 27 227
20 28 189
20 29 29
20 30 65
20 31 14
20 32 54
20 33 18
20 34 130
20 35 67
20 36 130
20 37 112
20 38 81
20 39 44
20 40 135
20 41 113
20 42 45
20 43 198
20 44 109
20 45 205
20 46 216
20 47 111
20 48 24
20 49 200
20 50 140
20 51 223
20 52 157
20 53 169
20 54 171
20 55 17
20 56 35
20 57 171
20 58 61
20 59 3
20 60 105
20 61 70
20 62 171
20 63 202
20 64 202
20 65 43
20 66 108
20 67 44
20 68 166
20 69 136
20 70 145
20 71 220
20 72 194
20 73 95
20 74 127
20 75 169
20 76 2
20 77 216
20 78 149
20 79 91
20 80 34
21 22 198
21 23 204
21 24 89
21 25 75
21 26 112
21 27 2
21 28 194
21 29 151
21 30 122
21 31 157
21 32 15
21 33 44
21 34 159
21 35 200
21 36 11
21 37 85
21 38 178
21 39 162
21 40 44
21 41 66
21 42 16
21 43 11
21 44 195
21 45 236
21 46 1
21 47 188
21 48 61
21 49 46
21 50 176
21 51 189
21 52 33
21 53 236
21 54 5
21 55 151
21 56 127
21 57 70
21 58 203
21 59 103
21 60 229
21 61 53
21 62 180
21 63 229
21 64 205
21 65 220
21 66 63
21 67 17
21 68 169
21 69 175
21 70 109
21 71 150
21 72 164
21 73 69
21 74 142
21 75 118
21 76 19
21 77 24
21 78 22
21 79 136
21 80 223
22 23 163
22 24 137
22 25 153
22 26 201
22 27 45
22 28 168
22 29 74
22 30 205
22 31 20
22 32 203
22 33 213
22 34 165
22 35 24
22 36 142
22 37 100
22 38 26
22 39 135
22 40 179
22 41 135
22 42 101
22 43 200
22 44 70
22 45 217
22 46 164
22 47 79
22 48 167
22 49 4
22 50 13
22 51 92
22 52 111
22 53 102
22 54 141
22 55 33
22 56 30
22 57 173
22 58 139
22 59 162
22 60 122
22 61 87
22 62 231
22 63 65
22 64 124
22 65 192
22 66 41
22 67 52
22 68 190
22 69 220
22 70 150
22 71 45
22 72 155
22 73 146
22 74 166
22 75 170
22 76 80
22 77 175
22 78 197
22 79 154
22 80 31
23 24 3
23 25 158
23 26 98
23 27 92
23 28 3
23 29 75
23 30 189
23 31 39
23 32 28
23 33 117
23 34 130
23 35 167
23 36 133
23 37 176
23 38 99
23 39 93
23 40 122
23 41 225
23 42 141
23 43 62
23 44 4
23 45 224
23 46 109
23 47 237
23 48 127
23 49 143
23 50 237
23 51 38
23 52 64
23 53 68
23 54 234
23 55 135
23 56 57
23 57 53
23 58 130
23 59 127
23 60 223
23 61 84
23 62 51
23 63 141
23 64 47
23 65 44
23 66 178
23 67 152
23 68 183
23 69 228
23 70 159
23 71 136
23 72 42
23 73 202
23 74 82
23 75 190
23 76 208
23 77 86
23 78 223
23 79 233
23 80 213
24 25 79
24 26 26
24 27 151
24 28 140
24 29 48
24 30 4
24 31 238
24 32 193
24 33 16
24 34 76
24 35 160
24 36 173
24 37 85
24 38 3
24 39 104
24 40 10
24 41 198
24 42 123
24 43 75
24 44 164
24 45 111
24 46 120
24 47 193
24 48 62
24 49 166
24 50 92
24 51 226
24 52 100
24 53 239
24 54 221
24 55 2
24 56 51
24 57 211
24 58 160
24 59 90
24 60 34
24 61 220
24 62 220
24 63 117
24 64 0
24 65 203
24 66 97
24 67 225
24 68 122
24 69 84
24 70 206
24 71 37
24 72 6
24 73 228
24 74 54
24 75 229
24 76 46
24 77 20
24 78 113
24 79 120
24 80 114
25 26 133
25 27 187
25 28 27
25 29 139
25 30 220
25 31 200
25 32 208
25 33 213
25 34 44
25 35 232
25 36 215
25 37 84
25 38 33
25 39 59
25 40 6
25 41 235
25 42 177
25 43 227
25 44 138
25 45 223
25 46 29
25 47 57
25 48 80
25 49 190
25 50 97
25 51 189
25 52 190
25 53 226
25 54 117
25 55 7
25 56 8
25 57 78
25 58 163
25 59 115
25 60 201
25 61 186
25 62 37
25 63 9
25 64 220
25 65 100
25 66 64
25 67 171
25 68 114
25 69 12
25 70 50
25 71 187
25 72 166
25 73 22
25 74 11
25 75 177
25 76 31
25 77 104
25 78 88
25 79 226
25 80 193
26 27 116
26 28 182
26 29 123
26 30 27
26 31 61
26 32 33
26 33 223
26 34 112
26 35 156
26 36 182
26 37 172
26 38 133
26 39 230
26 40 142
26 41 1
26 42 232
26 43 94
26 44 209
26 45 40
26 46 74
26 47 221
26 48 16
26 49 64
26 50 234
26 51 76
26 52 224
26 53 234
26 54 19
26 55 230
26 56 54
26 57 48
26 58 65
26 59 190
26 60 4
26 61 103
26 62 61
26 63 232
26 64 206
26 65 137
26 66 135
26 67 19
26 68 238
26 69 83
26 70 59
26 71 136
26 72 207
26 73 232
26 74 187
26 75 99
26 76 64
26 77 239
26 78 79
26 79 63
26 80 181
27 28 44
27 29 142
27 30 170
27 31 5
27 32 181
27 33 50
27 34 60
27 35 39
27 36 1
27 37 146
27 38 84
27 39 158
27 40 204
27 41 60
27 42 140
27 43 168
27 44 21
27 45 221
27 46 135
27 47 125
27 48 110
27 49 155
27 50 72
27 51 139
27 52 183
27 53 80
27 54 104
27 55 217
27 56 78
27 57 41
27 58 207
27 59 110
27 60 95
27 61 20
27 62 95
27 63 225
27 64 93
27 65 207
27 66 234
27 67 93
27 68 11
27 69 75
27 70 27
27 71 190
27 72 34
27 73 232
27 74 153
27 75 107
27 76 7
27 77 159
27 78 199
27 79 223
27 80 83
28 29 35
28 30 230
28 31 153
28 32 63
28 33 188
28 34 78
28 35 66
28 36 125
28 37 134
28 38 168
28 39 223
28 40 114
28 41 6
28 42 107
28 43 217
28 44 2
28 45 228
28 46 111
28 47 165
28 48 159
28 49 187
28 50 1
28 51 31
28 52 94
28 53 177
28 54 101
28 55 76
28 56 175
28 57 160
28 58 224
28 59 171
28 60 171
28 61 137
28 62 81
28 63 112
28 64 94
28 65 102
28 66 194
28 67 174
28 68 53
28 69 52
28 70 126
28 71 24
28 72 140
28 73 61
28 74 177
28 75 54
28 76 86
28 77 166
28 78 224
28 79 35
28 80 238
29 30 48
29 31 190
29 32 17
29 33 37
29 34 122
29 35 129
29 36 31
29 37 118
29 38 231
29 39 238
29 40 208
29 41 133
29 42 182
29 43 72
29 44 210
29 45 187
29 46 40
29 47 217
29 48 46
29 49 27
29 50 60
29 51 67
29 52 219
29 53 186
29 54 182
29 55 27
29 56 82
29 57 199
29 58 32
29 59 190
29 60 236
29 61 94
29 62 74
29 63 215
29 64 87
29 65 69
29 66 25
29 67 54
29 68 24
29 69 124
29 70 108
29 71 113
29 72 9
29 73 69
29 74 52
29 75 76
29 76 234
29 77 86
29 78 24
29 79 234
29 80 223
30 31 117
30 32 227
30 33 5
30 34 90
30 35 97
30 36 8
30 37 102
30 38 78
30 39 28
30 40 196
30 41 236
30 42 119
30 43 104
30 44 25
30 45 112
30 46 56
30 47 27
30 48 61
30 49 89
30 50 140
30 51 40
30 52 7
30 53 78
30 54 190
30 55 74
30 56 161
30 57 32
30 58 92
30 59 179
30 60 229
30 61 76
30 62 232
30 63 30
30 64 96
30 65 89
30 66 185
30 67 172
30 68 191
30 69 24
30 70 97
30 71 103
30 72 88
30 73 218
30 74 113
30 75 103
30 76 60
30 77 35
30 78 206
30 79 180
30 80 106
31 32 104
31 33 132
31 34 69
31 35 202
31 36 196
31 37 73
31 38 238
31 39 172
31 40 40
31 41 115
31 42 139
31 43 138
31 44 64
31 45 155
31 46 194
31 47 190
31 48 61
31 49 227
31 50 179
31 51 169
31 52 215
31 53 176
31 54 175
31 55 77
31 56 41
31 57 33
31 58 85
31 59 198
31 60 86
31 61 136
31 62 22
31 63 0
31 64 183
31 65 84
31 66 138
31 67 37
31 68 217
31 69 39
31 70 137
31 71 75
31 72 205
31 73 104
31 74 237
31 75 181
31 76 77
31 77 194
31 78 72
31 79 198
31 80 200
32 33 95
32 34 99
32 35 189
32 36 192
32 37 142
32 38 83
32 39 212
32 40 216
32 41 184
32 42 225
32 43 61
32 44 180
32 45 46
32 46 184
32 47 198
32 48 140
32 49 83
32 50 56
32 51 183
32 52 56
32 53 129
32 54 93
32 55 28
32 56 161
32 57 151
32 58 129
32 59 23
32 60 225
32 61 141
32 62 103
32 63 73
32 64 60
32 65 57
32 66 19
32 67 1
32 68 96
32 69 178
32 70 200
32 71 123
32 72 121
32 73 201
32 74 50
32 75 226
32 76 19
32 77 18
32 78 186
32 79 106
32 80 9
33 34 18
33 35 54
33 36 36
33 37 171
33 38 153
33 39 40
33 40 140
33 41 57
33 42 158
33 43 10
33 44 159
33 45 120
33 46 182
33 47 169
33 48 6
33 49 2
33 50 91
33 51 28
33 52 145
33 53 202
33 54 224
33 55 227
33 56 90
33 57 140
33 58 4
33 59 173
33 60 181
33 61 105
33 62 1
33 63 137
33 64 89
33 65 19
33 66 110
33 67 227
33 68 116
33 69 238
33 70 178
33 71 126
33 72 35
33 73 171
33 74 45
33 75 207
33 76 164
33 77 70
33 78 202
33 79 200
33 80 98
34 35 117
34 36 99
34 37 30
34 38 111
34 39 32
34 40 83
34 41 212
34 42 224
34 43 77
34 44 80
34 45 158
34 46 145
34 47 124
34 48 206
34 49 101
34 50 38
34 51 224
34 52 83
34 53 148
34 54 30
34 55 215
34 56 185
34 57 31
34 58 162
34 59 233
34 60 71
34 61 1
34 62 98
34 63 57
34 64 238
34 65 84
34 66 150
34 67 69
34 68 137
34 69 76
34 70 44
34 71 6
34 72 233
34 73 73
34 74 238
34 75 4
34 76 223
34 77 155
34 78 1
34 79 158
34 80 103
35 36 218
35 37 38
35 38 162
35 39 160
35 40 137
35 41 49
35 42 231
35 43 5
35 44 69
35 45 227
35 46 37
35 47 152
35 48 31
35 49 6
35 50 115
35 51 135
35 52 57
35 53 35
35 54 195
35 55 65
35 56 9
35 57 133
35 58 216
35 59 231
35 60 42
35 61 155
35 62 181
35 63 131
35 64 133
35 65 157
35 66 111
35 67 147
35 68 119
35 69 88
35 70 3
35 71 83
35 72 125
35 73 89
35 74 164
35 75 131
35 76 99
35 77 73
35 78 195
35 79 204
35 80 105
36 37 60
36 38 224
36 39 104
36 40 28
36 41 67
36 42 148
36 43 55
36 44 158
36 45 9
36 46 42
36 47 20
36 48 41
36 49 231
36 50 151
36 51 81
36 52 162
36 53 225
36 54 42
36 55 214
36 56 95
36 57 119
36 58 59
36 59 26
36 60 196
36 61 78
36 62 11
36 63 38
36 64 41
36 65 38
36 66 21
36 67 141
36 68 38
36 69 72
36 70 172
36 71 197
36 72 25
36 73 100
36 74 52
36 75 149
36 76 160
36 77 238
36 78 172
36 79 50
36 80 120
37 38 225
37 39 196
37 40 60
37 41 65
37 42 89
37 43 198
37 44 25
37 45 145
37 46 137
37 47 95
37 48 161
37 49 35
37 50 71
37 51 1
37 52 204
37 53 230
37 54 205
37 55 162
37 56 3
37 57 47
37 58 164
37 59 36
37 60 129
37 61 99
37 62 204
37 63 65
37 64 167
37 65 180
37 66 65
37 67 113
37 68 8
37 69 54
37 70 45
37 71 61
37 72 225
37 73 196
37 74 190
37 75 147
37 76 135
37 77 34
37 78 103
37 79 85
37 80 107
38 39 179
38 40 105
38 41 234
38 42 127
38 43 172
38 44 98
38 45 77
38 46 132
38 47 110
38 48 181
38 49 181
38 50 12
38 51 96
38 52 110
38 53 185
38 54 49
38 55 179
38 56 153
38 57 115
38 58 236
38 59 164
38 60 47
38 61 31
38 62 201
38 63 65
38 64 33
38 65 158
38 66 165
38 67 10
38 68 42
38 69 140
38 70 162
38 71 168
38 72 43
38 73 57
38 74 22
38 75 147
38 76 116
38 77 108
38 78 137
38 79 17
38 80 84
39 40 67
39 41 204
39 42 82
39 43 199
39 44 52
39 45 183
39 46 56
39 47 105
39 48 38
39 49 171
39 50 227
39 51 152
39 52 82
39 53 137
39 54 8
39 55 30
39 56 187
39 57 185
39 58 197
39 59 209
39 60 126
39 61 52
39 62 198
39 63 120
39 64 65
39 65 24
39 66 205
39 67 124
39 68 227
39 69 94
39 70 112
39 71 4
39 72 209
39 73 161
39 74 220
39 75 59
39 76 137
39 77 137
39 78 16
39 79 105
39 80 141
40 41 213
40 42 78
40 43 216
40 44 187
40 45 230
40 46 131
40 47 137
40 48 130
40 49 18
40 50 223
40 51 147
40 52 141
40 53 44
40 54 139
40 55 10
40 56 87
40 57 126
40 58 46
40 59 39
40 60 131
40 61 220
40 62 159
40 63 39
40 64 212
40 65 58
40 66 15
40 67 44
40 68 184
40 69 212
40 70 227
40 71 24
40 72 205
40 73 148
40 74 158
40 75 146
40 76 88
40 77 135
40 78 116
40 79 157
40 80 110
41 42 33
41 43 84
41 44 5
41 45 113
41 46 194
41 47 110
41 48 1
41 49 141
41 50 226
41 51 141
41 52 214
41 53 216
41 54 71
41 55 22
41 56 49
41 57 25
41 58 79
41 59 2
41 60 48
41 61 69
41 62 32
41 63 7
41 64 151
41 65 73
41 66 53
41 67 10
41 68 100
41 69 74
41 70 156
41 71 223
41 72 31
41 73 50
41 74 181
41 75 14
41 76 160
41 77 116
41 78 194
41 79 227
41 80 79
42 43 201
42 44 133
42 45 207
42 46 76
42 47 53
42 48 174
42 49 90
42 50 178
42 51 39
42 52 109
42 53 231
42 54 172
42 55 116
42 56 73
42 57 172
42 58 35
42 59 54
42 60 130
42 61 139
42 62 94
42 63 63
42 64 67
42 65 163
42 66 88
42 67 176
42 68 238
42 69 204
42 70 44
42 71 90
42 72 72
42 73 114
42 74 78
42 75 108
42 76 219
42 77 234
42 78 116
42 79 102
42 80 108
43 44 62
43 45 78
43 46 113
43 47 32
43 48 35
43 49 30
43 50 76
43 51 189
43 52 97
43 53 90
43 54 195
43 55 150
43 56 103
43 57 161
43 58 80
43 59 232
43 60 130
43 61 18
43 62 8
43 63 63
43 64 233
43 65 203
43 66 86
43 67 146
43 68 93
43 69 2
43 70 157
43 71 5
43 72 6
43 73 43
43 74 87
43 75 99
43 76 69
43 77 93
43 78 22
43 79 102
43 80 185
44 45 155
44 46 230
44 47 140
44 48 69
44 49 75
44 50 64
44 51 90
44 52 76
44 53 4
44 54 201
44 55 0
44 56 91
44 57 93
44 58 98
44 59 84
44 60 13
44 61 22
44 62 234
44 63 177
44 64 153
44 65 161
44 66 91
44 67 61
44 68 200
44 69 182
44 70 98
44 71 220
44 72 84
44 73 174
44 74 182
44 75 121
44 76 0
44 77 36
44 78 88
44 79 127
44 80 167
45 46 191
45 47 201
45 48 238
45 49 53
45 50 166
45 51 105
45 52 65
45 53 190
45 54 205
45 55 110
45 56 117
45 57 21
45 58 228
45 59 126
45 60 146
45 61 181
45 62 162
45 63 172
45 64 215
45 65 111
45 66 199
45 67 118
45 68 72
45 69 63
45 70 91
45 71 92
45 72 183
45 73 144
45 74 77
45 75 200
45 76 132
45 77 119
45 78 172
45 79 50
45 80 40
46 47 115
46 48 157
46 49 238
46 50 105
46 51 37
46 52 78
46 53 25
46 54 238
46 55 60
46 56 113
46 57 55
46 58 104
46 59 15
46 60 63
46 61 105
46 62 160
46 63 123
46 64 228
46 65 46
46 66 86
46 67 236
46 68 147
46 69 8
46 70 73
46 71 86
46 72 7
46 73 116
46 74 198
46 75 133
46 76 68
46 77 239
46 78 93
46 79 5
46 80 185
47 48 90
47 49 195
47 50 107
47 51 110
47 52 135
47 53 152
47 54 68
47 55 120
47 56 144
47 57 100
47 58 151
47 59 73
47 60 151
47 61 102
47 62 181
47 63 91
47 64 184
47 65 84
47 66 47
47 67 205
47 68 33
47 69 128
47 70 213
47 71 4
47 72 174
47 73 140
47 74 172
47 75 12
47 76 50
47 77 132
47 78 215
47 79 203
47 80 21
48 49 219
48 50 5
48 51 26
48 52 63
48 53 141
48 54 139
48 55 33
48 56 105
48 57 108
48 58 201
48 59 184
48 60 185
48 61 164
48 62 109
48 63 21
48 64 173
48 65 94
48 66 38
48 67 117
48 68 31
48 69 109
48 70 173
48 71 26
48 72 146
48 73 108
48 74 75
48 75 138
48 76 178
48 77 205
48 78 62
48 79 2
48 80 108
49 50 16
49 51 133
49 52 110
49 53 162
49 54 173
49 55 91
49 56 103
49 57 24
49 58 99
49 59 40
49 60 213
49 61 109
49 62 219
49 63 157
49 64 171
49 65 93
49 66 75
49 67 27
49 68 129
49 69 94
49 70 140
49 71 209
49 72 52
49 73 35
49 74 72
49 75 98
49 76 80
49 77 61
49 78 194
49 79 194
49 80 84
50 51 129
50 52 71
50 53 214
50 54 229
50 55 73
50 56 89
50 57 75
50 58 103
50 59 13
50 60 70
50 61 205
50 62 36
50 63 109
50 64 134
50 65 124
50 66 162
50 67 219
50 68 89
50 69 113
50 70 188
50 71 221
50 72 239
50 73 78
50 74 213
50 75 93
50 76 77
50 77 205
50 78 119
50 79 133
50 80 172
51 52 23
51 53 115
51 54 71
51 55 121
51 56 32
51 57 139
51 58 224
51 59 38
51 60 9
51 61 154
51 62 64
51 63 61
51 64 180
51 65 34
51 66 99
51 67 177
51 68 31
51 69 116
51 70 103
51 71 182
51 72 236
51 73 46
51 74 114
51 75 171
51 76 48
51 77 129
51 78 73
51 79 148
51 80 146
52 53 168
52 54 236
52 55 127
52 56 78
52 57 105
52 58 74
52 59 112
52 60 77
52 61 106
52 62 188
52 63 230
52 64 187
52 65 186
52 66 118
52 67 44
52 68 225
52 69 86
52 70 212
52 71 215
52 72 142
52 73 207
52 74 72
52 75 157
52 76 96
52 77 178
52 78 139
52 79 207
52 80 200
53 54 69
53 55 180
53 56 40
53 57 119
53 58 122
53 59 162
53 60 191
53 61 47
53 62 155
53 63 9
53 64 134
53 65 189
53 66 25
53 67 36
53 68 202
53 69 97
53 70 92
53 71 215
53 72 170
53 73 82
53 74 130
53 75 124
53 76 194
53 77 98
53 78 139
53 79 216
53 80 182
54 55 224
54 56 6
54 57 133
54 58 117
54 59 64
54 60 109
54 61 32
54 62 161
54 63 104
54 64 158
54 65 210
54 66 13
54 67 37
54 68 145
54 69 131
54 70 140
54 71 90
54 72 92
54 73 178
54 74 93
54 75 95
54 76 194
54 77 154
54 78 13
54 79 139
54 80 80
55 56 217
55 57 0
55 58 61
55 59 144
55 60 111
55 61 141
55 62 59
55 63 211
55 64 11
55 65 73
55 66 226
55 67 2
55 68 113
55 69 149
55 70 113
55 71 60
55 72 56
55 73 225
55 74 41
55 75 30
55 76 200
55 77 234
55 78 179
55 79 82
55 80 150
56 57 91
56 58 180
56 59 46
56 60 39
56 61 134
56 62 169
56 63 125
56 64 48
56 65 149
56 66 200
56 67 24
56 68 209
56 69 156
56 70 107
56 71 81
56 72 232
56 73 192
56 74 197
56 75 17
56 76 22
56 77 8
56 78 211
56 79 218
56 80 232
57 58 63
57 59 139
57 60 127
57 61 6
57 62 96
57 63 80
57 64 144
57 65 134
57 66 80
57 67 34
57 68 122
57 69 115
57 70 214
57 71 53
57 72 120
57 73 51
57 74 70
57 75 140
57 76 5
57 77 45
57 78 139
57 79 213
57 80 61
58 59 164
58 60 228
58 61 143
58 62 170
58 63 165
58 64 51
58 65 238
58 66 51
58 67 229
58 68 160
58 69 66
58 70 213
58 71 45
58 72 154
58 73 164
58 74 43
58 75 126
58 76 215
58 77 65
58 78 48
58 79 98
58 80 21
59 60 87
59 61 70
59 62 74
59 63 132
59 64 101
59 65 136
59 66 236
59 67 174
59 68 109
59 69 111
59 70 106
59 71 3
59 72 60
59 73 230
59 74 20
59 75 218
59 76 147
59 77 101
59 78 35
59 79 27
59 80 184
60 61 40
60 62 195
60 63 111
60 64 200
60 65 57
60 66 31
60 67 129
60 68 196
60 69 106
60 70 94
60 71 124
60 72 27
60 73 170
60 74 195
60 75 169
60 76 29
60 77 126
60 78 38
60 79 126
60 80 232
61 62 3
61 63 188
61 64 173
61 65 219
61 66 4
61 67 68
61 68 167
61 69 211
61 70 193
61 71 40
61 72 218
61 73 236
61 74 61
61 75 38
61 76 77
61 77 184
61 78 5
61 79 49
61 80 172
62 63 31
62 64 53
62 65 123
62 66 129
62 67 132
62 68 57
62 69 131
62 70 131
62 71 84
62 72 103
62 73 89
62 74 52
62 75 64
62 76 135
62 77 236
62 78 25
62 79 219
62 80 169
63 64 222
63 65 115
63 66 24
63 67 190
63 68 80
63 69 20
63 70 14
63 71 124
63 72 134
63 73 141
63 74 228
63 75 100
63 76 84
63 77 176
63 78 232
63 79 201
63 80 110
64 65 228
64 66 198
64 67 238
64 68 210
64 69 81
64 70 105
64 71 176
64 72 214
64 73 64
64 74 7
64 75 105
64 76 128
64 77 139
64 78 132
64 79 42
64 80 108
65 66 11
65 67 32
65 68 31
65 69 199
65 70 31
65 71 23
65 72 38
65 73 189
65 74 204
65 75 173
65 76 110
65 77 160
65 78 200
65 79 6
65 80 152
66 67 124
66 68 217
66 69 38
66 70 17
66 71 192
66 72 30
66 73 174
66 74 66
66 75 58
66 76 221
66 77 72
66 78 82
66 79 238
66 80 185
67 68 25
67 69 226
67 70 176
67 71 152
67 72 92
67 73 199
67 74 26
67 75 226
67 76 62
67 77 93
67 78 228
67 79 96
67 80 217
68 69 224
68 70 25
68 71 113
68 72 70
68 73 135
68 74 5
68 75 151
68 76 237
68 77 6
68 78 212
68 79 128
68 80 196
69 70 113
69 71 147
69 72 195
69 73 172
69 74 146
69 75 37
69 76 44
69 77 18
69 78 151
69 79 122
69 80 29
70 71 11
70 72 62
70 73 43
70 74 20
70 75 187
70 76 123
70 77 146
70 78 180
70 79 87
70 80 198
71 72 158
71 73 84
71 74 41
71 75 69
71 76 9
71 77 218
71 78 26
71 79 167
71 80 57
72 73 194
72 74 184
72 75 214
72 76 10
72 77 236
72 78 220
72 79 19
72 80 220
73 74 212
73 75 220
73 76 146
73 77 229
73 78 197
73 79 26
73 80 237
74 75 224
74 76 206
74 77 125
74 78 211
74 79 22
74 80 52
75 76 78
75 77 95
75 78 89
75 79 202
75 80 160
76 77 133
76 78 29
76 79 180
76 80 173
77 78 122
77 79 219
77 80 172
78 79 144
78 80 49
79 80 143
